instances/tuning-use-case-3/ISA875RandomOvenSchedulingInstance-n25-k5-a5--0505-22.33.15.dat
LengthSchedulingHorizon=846;
nAttributes=5;
SetupCosts=[[0, 0, 0, 0, 0], [0, 3, 3, 3, 3], [3, 0, 3, 3, 3], [3, 3, 2, 3, 3], [3, 3, 3, 0, 3], [3, 3, 3, 3, 1]];
SetupTimes=[[0, 0, 0, 0, 0], [1, 3, 3, 3, 3], [3, 0, 3, 3, 3], [3, 3, 1, 3, 3], [3, 3, 3, 1, 3], [3, 3, 3, 3, 0]];
nMachines=5;
MinCap=[0, 0, 0, 0, 0];
MaxCap=[20, 20, 20, 20, 20];

initState=[3, 4, 3, 4, 5];
nShifts=5;
ShiftStartTimes = [[0, 458, 617, 686, 778], [540, 568, 652, 742, 791], [0, 0, 499, 619, 711], [0, 0, 0, 0, 524], [0, 0, 575, 606, 830]];
ShiftEndTimes = [[0, 569, 684, 715, 825], [549, 620, 680, 773, 808], [0, 0, 609, 686, 786], [0, 0, 0, 0, 825], [0, 0, 586, 776, 842]];
nJobs=25;
EligibleMachines = [{1, 2, 3, 4, 5}, {1, 3, 4, 5}, {1, 3, 5}, {2, 4, 5}, {1, 4, 5}, {1, 2}, {1, 3, 5}, {2, 3, 4}, {1, 4, 5}, {1, 2, 4, 5}, {1, 2, 4, 5}, {2, 3, 5}, {1, 3, 4}, {2, 3, 4, 5}, {5}, {1, 2, 3, 5}, {1, 2, 4, 5}, {2, 3, 5}, {1, 2, 4, 5}, {1, 4}, {2, 4}, {1, 2, 3, 5}, {4, 5}, {1, 2, 4}, {3, 4, 5}];
EarliestStart=[14, 11, 8, 8, 6, 5, 5, 8, 2, 5, 1, 11, 9, 14, 0, 5, 4, 10, 2, 3, 3, 13, 6, 11, 2];
LatestEnd=[21, 19, 21, 22, 12, 9, 12, 21, 3, 6, 2, 24, 15, 29, 7, 23, 9, 21, 12, 4, 10, 25, 11, 12, 12];
MinTime=[4, 6, 7, 9, 4, 4, 5, 7, 1, 1, 1, 10, 5, 9, 4, 10, 4, 9, 7, 1, 6, 8, 3, 1, 7];
MaxTime=[5, 9, 9, 10, 8, 7, 5, 7, 5, 6, 6, 10, 10, 9, 4, 10, 6, 10, 8, 10, 9, 8, 7, 4, 9];
JobSize=[11, 4, 11, 1, 5, 3, 1, 1, 6, 3, 13, 5, 20, 12, 16, 11, 16, 6, 19, 16, 20, 6, 7, 5, 14];
Attribute=[5, 1, 2, 2, 5, 2, 3, 2, 3, 3, 5, 5, 1, 2, 2, 4, 5, 5, 3, 3, 2, 5, 5, 1, 1];

upper_bound_integer_objective=750;
mult_factor_total_runtime=2;
mult_factor_finished_toolate=12;
mult_factor_total_setuptimes=0;
mult_factor_total_setupcosts=2;
running_time_bound=133;
min_duration=1;
max_duration=10;
max_setup_time=3;
max_setup_cost=3;
